Minimize 
Objective: + M +W4 +W9 +W11 +W12 +W13 +W16 +W17 +W18 +W20 +W21 +W24 +W26 +W28 +W30 +W31 +W32 +W34 +W36 +W37 +W38 +W39 +W40 +W41 +W45 +W47 +W50 +W51 +W52 +W53 +W54 +W55 +W58 +W60 +W62 +W63 +W64 +W65 +W66 +W67 +W68 +W69 +W70 +W71 +W72
Subject To
+W0 - M <= 0
+W1 - M <= 0
+W2 - M <= 0
+W3 - M <= 0
+W5 - M <= 0
+W6 - M <= 0
+W7 - M <= 0
+W8 - M <= 0
+W10 - M <= 0
+W14 - M <= 0
+W15 - M <= 0
+W19 - M <= 0
+W22 - M <= 0
+W23 - M <= 0
+W25 - M <= 0
+W27 - M <= 0
+W29 - M <= 0
+W33 - M <= 0
+W35 - M <= 0
+W42 - M <= 0
+W43 - M <= 0
+W44 - M <= 0
+W46 - M <= 0
+W48 - M <= 0
+W49 - M <= 0
+W56 - M <= 0
+W57 - M <= 0
+W59 - M <= 0
+W61 - M <= 0
+W8 +W9 +W11 +W16 -W3 -W17 = 0
+W8 +W9 +W11 +W16 -W3 -W17 = 0
+W8 +W9 +W11 +W16 -W3 -W17 = 0
+W8 +W9 +W11 +W16 -W3 -W17 = 0
+W8 +W9 +W26 +W31 +W36 -W8 -W9 -W11 -W20 -W37 = 0
+W8 +W9 +W26 +W31 +W36 -W8 -W9 -W11 -W20 -W37 = 0
+W8 +W9 +W11 +W20 +W37 +W39 -W3 -W17 -W40 = 0
+W8 +W9 +W11 +W20 +W37 +W39 -W3 -W17 -W40 = 0
+W10 +W11 +W20 +W37 +W39 -W10 -W11 -W16 -W40 = 0
+W8 +W9 +W11 +W20 +W37 +W39 -W8 -W9 -W11 -W16 -W40 = 0
+W10 +W11 +W20 +W37 +W39 -W10 -W11 -W16 -W40 = 0
+W8 +W9 +W11 +W20 +W37 +W39 -W8 -W9 -W11 -W16 -W40 = 0
+W8 +W9 +W11 +W20 +W37 +W39 -W3 -W17 -W40 = 0
+W8 +W9 +W11 +W20 +W37 +W39 -W3 -W17 -W40 = 0
+W8 +W9 +W11 +W20 +W37 +W39 -W8 -W9 -W11 -W16 -W40 = 0
+W8 +W9 +W11 +W20 +W37 +W39 -W8 -W9 -W11 -W16 -W40 = 0
+W49 +W52 -W44 -W54 = 0
+W48 +W52 -W43 -W45 -W54 = 0
+W49 +W52 -W44 -W54 = 0
+W49 +W52 -W44 -W54 = 0
+W49 +W52 -W44 -W54 = 0
+W48 +W52 -W43 -W45 -W54 = 0
+W59 +W67 -W8 -W9 -W11 -W20 -W64 -W65 = 0
+W59 +W67 -W8 -W9 -W11 -W20 -W64 -W65 = 0
+W59 +W67 -W8 -W9 -W11 -W20 -W64 -W65 = 0
+W59 +W67 -W8 -W9 -W11 -W20 -W64 -W65 = 0
+W59 +W67 -W8 -W9 -W11 -W20 -W64 -W65 = 0
+W59 +W67 -W8 -W9 -W11 -W20 -W64 -W65 = 0
+W8 +W9 +W11 +W20 +W64 +W65 +W70 -W44 -W54 -W68 = 0
+W1 +W4 +W62 +W66 +W70 -W1 -W4 -W62 -W69 = 0
+W8 +W9 +W11 +W20 +W64 +W65 +W70 -W44 -W54 -W68 = 0
+W10 +W11 +W20 +W64 +W65 +W70 -W43 -W45 -W54 -W68 = 0
+W8 +W9 +W11 +W20 +W64 +W65 +W70 -W44 -W54 -W68 = 0
+W1 +W4 +W62 +W66 +W70 -W1 -W4 -W62 -W69 = 0
+W10 +W11 +W20 +W64 +W65 +W70 -W43 -W45 -W54 -W68 = 0
+W8 +W9 +W11 +W20 +W64 +W65 +W70 -W44 -W54 -W68 = 0
+W10 +W11 +W20 +W64 +W65 +W70 -W48 -W52 -W68 = 0
+W61 +W66 +W70 -W42 -W53 -W68 = 0
+W8 +W9 +W11 +W20 +W64 +W65 +W70 -W49 -W52 -W68 = 0
+W1 +W4 +W62 +W66 +W70 -W1 -W4 -W62 -W69 = 0
+W10 +W11 +W20 +W64 +W65 +W70 -W48 -W52 -W68 = 0
+W61 +W66 +W70 -W42 -W53 -W68 = 0
+W8 +W9 +W11 +W20 +W64 +W65 +W70 -W49 -W52 -W68 = 0
+W61 +W66 +W70 -W42 -W53 -W68 = 0
+W8 +W9 +W11 +W20 +W64 +W65 +W70 -W49 -W52 -W68 = 0
+W1 +W4 +W62 +W66 +W70 -W1 -W4 -W62 -W69 = 0
+W61 +W66 +W70 -W42 -W53 -W68 = 0
+W8 +W9 +W11 +W20 +W64 +W65 +W70 -W49 -W52 -W68 = 0
+W10 +W11 +W20 +W64 +W65 +W70 -W48 -W52 -W68 = 0
+W61 +W66 +W70 -W42 -W53 -W68 = 0
+W1 +W4 +W62 +W66 +W70 -W1 -W4 -W62 -W69 = 0
+W10 +W11 +W20 +W64 +W65 +W70 -W48 -W52 -W68 = 0
+W61 +W66 +W70 -W42 -W53 -W68 = 0
+W8 +W9 +W11 +W20 +W64 +W65 +W70 -W44 -W54 -W68 = 0
+W1 +W4 +W62 +W66 +W70 -W1 -W4 -W62 -W69 = 0
+W8 +W9 +W11 +W20 +W64 +W65 +W70 -W44 -W54 -W68 = 0
+W10 +W11 +W20 +W64 +W65 +W70 -W43 -W45 -W54 -W68 = 0
+W8 +W9 +W11 +W20 +W64 +W65 +W70 -W44 -W54 -W68 = 0
+W1 +W4 +W62 +W66 +W70 -W1 -W4 -W62 -W69 = 0
+W10 +W11 +W20 +W64 +W65 +W70 -W43 -W45 -W54 -W68 = 0
+W8 +W9 +W11 +W20 +W64 +W65 +W70 -W44 -W54 -W68 = 0
+W10 +W11 +W20 +W64 +W65 +W70 -W48 -W52 -W68 = 0
+W8 +W9 +W11 +W20 +W64 +W65 +W70 -W49 -W52 -W68 = 0
+W1 +W4 +W62 +W66 +W70 -W1 -W4 -W62 -W69 = 0
+W10 +W11 +W20 +W64 +W65 +W70 -W48 -W52 -W68 = 0
+W8 +W9 +W11 +W20 +W64 +W65 +W70 -W49 -W52 -W68 = 0
+W8 +W9 +W11 +W20 +W64 +W65 +W70 -W49 -W52 -W68 = 0
+W1 +W4 +W62 +W66 +W70 -W1 -W4 -W62 -W69 = 0
+W8 +W9 +W11 +W20 +W64 +W65 +W70 -W49 -W52 -W68 = 0
+W10 +W11 +W20 +W64 +W65 +W70 -W48 -W52 -W68 = 0
+W1 +W4 +W62 +W66 +W70 -W1 -W4 -W62 -W69 = 0
+W10 +W11 +W20 +W64 +W65 +W70 -W48 -W52 -W68 = 0
+W8 +W9 +W11 +W20 +W64 +W65 +W70 -W44 -W54 -W68 = 0
+W1 +W4 +W62 +W66 +W70 -W1 -W4 -W62 -W69 = 0
+W8 +W9 +W11 +W20 +W64 +W65 +W70 -W44 -W54 -W68 = 0
+W8 +W9 +W11 +W20 +W64 +W65 +W70 -W44 -W54 -W68 = 0
+W1 +W4 +W62 +W66 +W70 -W1 -W4 -W62 -W69 = 0
+W8 +W9 +W11 +W20 +W64 +W65 +W70 -W44 -W54 -W68 = 0
+W61 +W66 +W70 -W42 -W53 -W68 = 0
+W8 +W9 +W11 +W20 +W64 +W65 +W70 -W49 -W52 -W68 = 0
+W1 +W4 +W62 +W66 +W70 -W1 -W4 -W62 -W69 = 0
+W61 +W66 +W70 -W42 -W53 -W68 = 0
+W8 +W9 +W11 +W20 +W64 +W65 +W70 -W49 -W52 -W68 = 0
+W61 +W66 +W70 -W42 -W53 -W68 = 0
+W8 +W9 +W11 +W20 +W64 +W65 +W70 -W49 -W52 -W68 = 0
+W1 +W4 +W62 +W66 +W70 -W1 -W4 -W62 -W69 = 0
+W61 +W66 +W70 -W42 -W53 -W68 = 0
+W8 +W9 +W11 +W20 +W64 +W65 +W70 -W49 -W52 -W68 = 0
+W61 +W66 +W70 -W42 -W53 -W68 = 0
+W1 +W4 +W62 +W66 +W70 -W1 -W4 -W62 -W69 = 0
+W61 +W66 +W70 -W42 -W53 -W68 = 0
+W8 +W9 +W11 +W20 +W64 +W65 +W70 -W44 -W54 -W68 = 0
+W1 +W4 +W62 +W66 +W70 -W1 -W4 -W62 -W69 = 0
+W8 +W9 +W11 +W20 +W64 +W65 +W70 -W44 -W54 -W68 = 0
+W8 +W9 +W11 +W20 +W64 +W65 +W70 -W44 -W54 -W68 = 0
+W1 +W4 +W62 +W66 +W70 -W1 -W4 -W62 -W69 = 0
+W8 +W9 +W11 +W20 +W64 +W65 +W70 -W44 -W54 -W68 = 0
+W8 +W9 +W11 +W20 +W64 +W65 +W70 -W49 -W52 -W68 = 0
+W1 +W4 +W62 +W66 +W70 -W1 -W4 -W62 -W69 = 0
+W8 +W9 +W11 +W20 +W64 +W65 +W70 -W49 -W52 -W68 = 0
+W8 +W9 +W11 +W20 +W64 +W65 +W70 -W49 -W52 -W68 = 0
+W1 +W4 +W62 +W66 +W70 -W1 -W4 -W62 -W69 = 0
+W8 +W9 +W11 +W20 +W64 +W65 +W70 -W49 -W52 -W68 = 0
+W1 +W4 +W62 +W66 +W70 -W1 -W4 -W62 -W69 = 0
+W8 +W9 +W11 +W20 +W64 +W65 +W70 -W44 -W54 -W68 = 0
+W8 +W9 +W11 +W20 +W64 +W65 +W70 -W44 -W54 -W68 = 0
+W10 +W11 +W20 +W64 +W65 +W70 -W43 -W45 -W54 -W68 = 0
+W8 +W9 +W11 +W20 +W64 +W65 +W70 -W44 -W54 -W68 = 0
+W10 +W11 +W20 +W64 +W65 +W70 -W43 -W45 -W54 -W68 = 0
+W8 +W9 +W11 +W20 +W64 +W65 +W70 -W44 -W54 -W68 = 0
+W10 +W11 +W20 +W64 +W65 +W70 -W48 -W52 -W68 = 0
+W8 +W9 +W11 +W20 +W64 +W65 +W70 -W49 -W52 -W68 = 0
+W10 +W11 +W20 +W64 +W65 +W70 -W48 -W52 -W68 = 0
+W8 +W9 +W11 +W20 +W64 +W65 +W70 -W49 -W52 -W68 = 0
+W8 +W9 +W11 +W20 +W64 +W65 +W70 -W49 -W52 -W68 = 0
+W8 +W9 +W11 +W20 +W64 +W65 +W70 -W49 -W52 -W68 = 0
+W10 +W11 +W20 +W64 +W65 +W70 -W48 -W52 -W68 = 0
+W10 +W11 +W20 +W64 +W65 +W70 -W48 -W52 -W68 = 0
+W8 +W9 +W11 +W20 +W64 +W65 +W70 -W44 -W54 -W68 = 0
+W8 +W9 +W11 +W20 +W64 +W65 +W70 -W44 -W54 -W68 = 0
+W8 +W9 +W11 +W20 +W64 +W65 +W70 -W44 -W54 -W68 = 0
+W8 +W9 +W11 +W20 +W64 +W65 +W70 -W44 -W54 -W68 = 0
+W8 +W9 +W11 +W20 +W64 +W65 +W70 -W49 -W52 -W68 = 0
+W8 +W9 +W11 +W20 +W64 +W65 +W70 -W49 -W52 -W68 = 0
+W8 +W9 +W11 +W20 +W64 +W65 +W70 -W49 -W52 -W68 = 0
+W8 +W9 +W11 +W20 +W64 +W65 +W70 -W49 -W52 -W68 = 0
+W10 +W11 +W20 +W64 +W65 +W70 +W71 -W10 -W11 -W20 -W37 -W39 -W72 = 0
+W42 +W53 +W68 +W71 -W35 -W38 -W39 -W72 = 0
+W8 +W9 +W11 +W20 +W64 +W65 +W70 +W71 -W8 -W9 -W11 -W20 -W37 -W39 -W72 = 0
+W10 +W11 +W20 +W64 +W65 +W70 +W71 -W10 -W11 -W20 -W37 -W39 -W72 = 0
+W42 +W53 +W68 +W71 -W35 -W38 -W39 -W72 = 0
+W8 +W9 +W11 +W20 +W64 +W65 +W70 +W71 -W8 -W9 -W11 -W20 -W37 -W39 -W72 = 0
+W42 +W53 +W68 +W71 -W35 -W38 -W39 -W72 = 0
+W8 +W9 +W11 +W20 +W64 +W65 +W70 +W71 -W8 -W9 -W11 -W20 -W37 -W39 -W72 = 0
+W42 +W53 +W68 +W71 -W35 -W38 -W39 -W72 = 0
+W8 +W9 +W11 +W20 +W64 +W65 +W70 +W71 -W8 -W9 -W11 -W20 -W37 -W39 -W72 = 0
+W8 +W9 +W11 +W20 +W64 +W65 +W70 +W71 -W3 -W17 -W40 -W72 = 0
+W8 +W9 +W11 +W20 +W64 +W65 +W70 +W71 -W3 -W17 -W40 -W72 = 0
+W10 +W11 +W20 +W64 +W65 +W70 +W71 -W10 -W11 -W16 -W40 -W72 = 0
+W8 +W9 +W11 +W20 +W64 +W65 +W70 +W71 -W8 -W9 -W11 -W16 -W40 -W72 = 0
+W10 +W11 +W20 +W64 +W65 +W70 +W71 -W10 -W11 -W16 -W40 -W72 = 0
+W8 +W9 +W11 +W20 +W64 +W65 +W70 +W71 -W8 -W9 -W11 -W16 -W40 -W72 = 0
+W10 +W11 +W20 +W64 +W65 +W70 +W71 -W10 -W11 -W20 -W37 -W39 -W72 = 0
+W42 +W53 +W68 +W71 -W35 -W38 -W39 -W72 = 0
+W8 +W9 +W11 +W20 +W64 +W65 +W70 +W71 -W8 -W9 -W11 -W20 -W37 -W39 -W72 = 0
+W1 +W4 +W62 +W69 +W71 -W1 -W4 -W17 -W40 -W72 = 0
+W10 +W11 +W20 +W64 +W65 +W70 +W71 -W10 -W11 -W20 -W37 -W39 -W72 = 0
+W42 +W53 +W68 +W71 -W35 -W38 -W39 -W72 = 0
+W8 +W9 +W11 +W20 +W64 +W65 +W70 +W71 -W8 -W9 -W11 -W20 -W37 -W39 -W72 = 0
+W42 +W53 +W68 +W71 -W35 -W38 -W39 -W72 = 0
+W8 +W9 +W11 +W20 +W64 +W65 +W70 +W71 -W8 -W9 -W11 -W20 -W37 -W39 -W72 = 0
+W1 +W4 +W62 +W69 +W71 -W1 -W4 -W17 -W40 -W72 = 0
+W42 +W53 +W68 +W71 -W35 -W38 -W39 -W72 = 0
+W8 +W9 +W11 +W20 +W64 +W65 +W70 +W71 -W8 -W9 -W11 -W20 -W37 -W39 -W72 = 0
+W8 +W9 +W11 +W20 +W64 +W65 +W70 +W71 -W3 -W17 -W40 -W72 = 0
+W1 +W4 +W62 +W69 +W71 -W1 -W4 -W17 -W40 -W72 = 0
+W8 +W9 +W11 +W20 +W64 +W65 +W70 +W71 -W3 -W17 -W40 -W72 = 0
+W10 +W11 +W20 +W64 +W65 +W70 +W71 -W10 -W11 -W16 -W40 -W72 = 0
+W8 +W9 +W11 +W20 +W64 +W65 +W70 +W71 -W8 -W9 -W11 -W16 -W40 -W72 = 0
+W1 +W4 +W62 +W69 +W71 -W1 -W4 -W17 -W40 -W72 = 0
+W10 +W11 +W20 +W64 +W65 +W70 +W71 -W10 -W11 -W16 -W40 -W72 = 0
+W8 +W9 +W11 +W20 +W64 +W65 +W70 +W71 -W8 -W9 -W11 -W16 -W40 -W72 = 0
+W8 +W9 +W11 +W20 +W64 +W65 +W70 +W71 -W8 -W9 -W11 -W20 -W37 -W39 -W72 = 0
+W8 +W9 +W11 +W20 +W64 +W65 +W70 +W71 -W8 -W9 -W11 -W20 -W37 -W39 -W72 = 0
+W8 +W9 +W11 +W20 +W64 +W65 +W70 +W71 -W8 -W9 -W11 -W20 -W37 -W39 -W72 = 0
+W8 +W9 +W11 +W20 +W64 +W65 +W70 +W71 -W8 -W9 -W11 -W20 -W37 -W39 -W72 = 0
+W8 +W9 +W11 +W20 +W64 +W65 +W70 +W71 -W3 -W17 -W40 -W72 = 0
+W8 +W9 +W11 +W20 +W64 +W65 +W70 +W71 -W3 -W17 -W40 -W72 = 0
+W8 +W9 +W11 +W20 +W64 +W65 +W70 +W71 -W8 -W9 -W11 -W16 -W40 -W72 = 0
+W8 +W9 +W11 +W20 +W64 +W65 +W70 +W71 -W8 -W9 -W11 -W16 -W40 -W72 = 0
+W8 +W9 +W11 +W20 +W64 +W65 +W70 +W71 -W8 -W9 -W11 -W20 -W37 -W39 -W72 = 0
+W1 +W4 +W62 +W69 +W71 -W1 -W4 -W17 -W40 -W72 = 0
+W8 +W9 +W11 +W20 +W64 +W65 +W70 +W71 -W8 -W9 -W11 -W20 -W37 -W39 -W72 = 0
+W8 +W9 +W11 +W20 +W64 +W65 +W70 +W71 -W8 -W9 -W11 -W20 -W37 -W39 -W72 = 0
+W1 +W4 +W62 +W69 +W71 -W1 -W4 -W17 -W40 -W72 = 0
+W8 +W9 +W11 +W20 +W64 +W65 +W70 +W71 -W8 -W9 -W11 -W20 -W37 -W39 -W72 = 0
+W8 +W9 +W11 +W20 +W64 +W65 +W70 +W71 -W3 -W17 -W40 -W72 = 0
+W1 +W4 +W62 +W69 +W71 -W1 -W4 -W17 -W40 -W72 = 0
+W8 +W9 +W11 +W20 +W64 +W65 +W70 +W71 -W3 -W17 -W40 -W72 = 0
+W8 +W9 +W11 +W20 +W64 +W65 +W70 +W71 -W8 -W9 -W11 -W16 -W40 -W72 = 0
+W1 +W4 +W62 +W69 +W71 -W1 -W4 -W17 -W40 -W72 = 0
+W8 +W9 +W11 +W20 +W64 +W65 +W70 +W71 -W8 -W9 -W11 -W16 -W40 -W72 = 0
+W43 +W45 +W54 +W68 +W71 -W10 -W11 -W20 -W37 -W39 -W72 = 0
+W8 +W9 +W11 +W20 +W64 +W65 +W70 +W71 -W8 -W9 -W11 -W20 -W37 -W39 -W72 = 0
+W43 +W45 +W54 +W68 +W71 -W10 -W11 -W20 -W37 -W39 -W72 = 0
+W8 +W9 +W11 +W20 +W64 +W65 +W70 +W71 -W8 -W9 -W11 -W20 -W37 -W39 -W72 = 0
+W8 +W9 +W11 +W20 +W64 +W65 +W70 +W71 -W8 -W9 -W11 -W20 -W37 -W39 -W72 = 0
+W8 +W9 +W11 +W20 +W64 +W65 +W70 +W71 -W8 -W9 -W11 -W20 -W37 -W39 -W72 = 0
+W8 +W9 +W11 +W20 +W64 +W65 +W70 +W71 -W3 -W17 -W40 -W72 = 0
+W8 +W9 +W11 +W20 +W64 +W65 +W70 +W71 -W3 -W17 -W40 -W72 = 0
+W43 +W45 +W54 +W68 +W71 -W10 -W11 -W16 -W40 -W72 = 0
+W8 +W9 +W11 +W20 +W64 +W65 +W70 +W71 -W8 -W9 -W11 -W16 -W40 -W72 = 0
+W43 +W45 +W54 +W68 +W71 -W10 -W11 -W16 -W40 -W72 = 0
+W8 +W9 +W11 +W20 +W64 +W65 +W70 +W71 -W8 -W9 -W11 -W16 -W40 -W72 = 0
+W43 +W45 +W54 +W68 +W71 -W10 -W11 -W20 -W37 -W39 -W72 = 0
+W8 +W9 +W11 +W20 +W64 +W65 +W70 +W71 -W8 -W9 -W11 -W20 -W37 -W39 -W72 = 0
+W1 +W4 +W62 +W69 +W71 -W1 -W4 -W17 -W40 -W72 = 0
+W43 +W45 +W54 +W68 +W71 -W10 -W11 -W20 -W37 -W39 -W72 = 0
+W8 +W9 +W11 +W20 +W64 +W65 +W70 +W71 -W8 -W9 -W11 -W20 -W37 -W39 -W72 = 0
+W8 +W9 +W11 +W20 +W64 +W65 +W70 +W71 -W8 -W9 -W11 -W20 -W37 -W39 -W72 = 0
+W1 +W4 +W62 +W69 +W71 -W1 -W4 -W17 -W40 -W72 = 0
+W8 +W9 +W11 +W20 +W64 +W65 +W70 +W71 -W8 -W9 -W11 -W20 -W37 -W39 -W72 = 0
+W8 +W9 +W11 +W20 +W64 +W65 +W70 +W71 -W3 -W17 -W40 -W72 = 0
+W1 +W4 +W62 +W69 +W71 -W1 -W4 -W17 -W40 -W72 = 0
+W8 +W9 +W11 +W20 +W64 +W65 +W70 +W71 -W3 -W17 -W40 -W72 = 0
+W43 +W45 +W54 +W68 +W71 -W10 -W11 -W16 -W40 -W72 = 0
+W8 +W9 +W11 +W20 +W64 +W65 +W70 +W71 -W8 -W9 -W11 -W16 -W40 -W72 = 0
+W1 +W4 +W62 +W69 +W71 -W1 -W4 -W17 -W40 -W72 = 0
+W43 +W45 +W54 +W68 +W71 -W10 -W11 -W16 -W40 -W72 = 0
+W8 +W9 +W11 +W20 +W64 +W65 +W70 +W71 -W8 -W9 -W11 -W16 -W40 -W72 = 0
+W42 +W53 +W68 +W71 -W35 -W38 -W39 -W72 = 0
+W8 +W9 +W11 +W20 +W64 +W65 +W70 +W71 -W8 -W9 -W11 -W20 -W37 -W39 -W72 = 0
+W42 +W53 +W68 +W71 -W35 -W38 -W39 -W72 = 0
+W8 +W9 +W11 +W20 +W64 +W65 +W70 +W71 -W8 -W9 -W11 -W20 -W37 -W39 -W72 = 0
+W42 +W53 +W68 +W71 -W35 -W38 -W39 -W72 = 0
+W8 +W9 +W11 +W20 +W64 +W65 +W70 +W71 -W8 -W9 -W11 -W20 -W37 -W39 -W72 = 0
+W42 +W53 +W68 +W71 -W35 -W38 -W39 -W72 = 0
+W8 +W9 +W11 +W20 +W64 +W65 +W70 +W71 -W8 -W9 -W11 -W20 -W37 -W39 -W72 = 0
+W8 +W9 +W11 +W20 +W64 +W65 +W70 +W71 -W3 -W17 -W40 -W72 = 0
+W8 +W9 +W11 +W20 +W64 +W65 +W70 +W71 -W3 -W17 -W40 -W72 = 0
+W8 +W9 +W11 +W20 +W64 +W65 +W70 +W71 -W8 -W9 -W11 -W16 -W40 -W72 = 0
+W8 +W9 +W11 +W20 +W64 +W65 +W70 +W71 -W8 -W9 -W11 -W16 -W40 -W72 = 0
+W42 +W53 +W68 +W71 -W35 -W38 -W39 -W72 = 0
+W8 +W9 +W11 +W20 +W64 +W65 +W70 +W71 -W8 -W9 -W11 -W20 -W37 -W39 -W72 = 0
+W1 +W4 +W62 +W69 +W71 -W1 -W4 -W17 -W40 -W72 = 0
+W42 +W53 +W68 +W71 -W35 -W38 -W39 -W72 = 0
+W8 +W9 +W11 +W20 +W64 +W65 +W70 +W71 -W8 -W9 -W11 -W20 -W37 -W39 -W72 = 0
+W42 +W53 +W68 +W71 -W35 -W38 -W39 -W72 = 0
+W8 +W9 +W11 +W20 +W64 +W65 +W70 +W71 -W8 -W9 -W11 -W20 -W37 -W39 -W72 = 0
+W1 +W4 +W62 +W69 +W71 -W1 -W4 -W17 -W40 -W72 = 0
+W42 +W53 +W68 +W71 -W35 -W38 -W39 -W72 = 0
+W8 +W9 +W11 +W20 +W64 +W65 +W70 +W71 -W8 -W9 -W11 -W20 -W37 -W39 -W72 = 0
+W8 +W9 +W11 +W20 +W64 +W65 +W70 +W71 -W3 -W17 -W40 -W72 = 0
+W1 +W4 +W62 +W69 +W71 -W1 -W4 -W17 -W40 -W72 = 0
+W8 +W9 +W11 +W20 +W64 +W65 +W70 +W71 -W3 -W17 -W40 -W72 = 0
+W8 +W9 +W11 +W20 +W64 +W65 +W70 +W71 -W8 -W9 -W11 -W16 -W40 -W72 = 0
+W1 +W4 +W62 +W69 +W71 -W1 -W4 -W17 -W40 -W72 = 0
+W8 +W9 +W11 +W20 +W64 +W65 +W70 +W71 -W8 -W9 -W11 -W16 -W40 -W72 = 0
+W48 +W52 +W68 +W71 -W10 -W11 -W20 -W37 -W39 -W72 = 0
+W42 +W53 +W68 +W71 -W35 -W38 -W39 -W72 = 0
+W48 +W52 +W68 +W71 -W10 -W11 -W20 -W37 -W39 -W72 = 0
+W42 +W53 +W68 +W71 -W35 -W38 -W39 -W72 = 0
+W42 +W53 +W68 +W71 -W35 -W38 -W39 -W72 = 0
+W42 +W53 +W68 +W71 -W35 -W38 -W39 -W72 = 0
+W48 +W52 +W68 +W71 -W10 -W11 -W16 -W40 -W72 = 0
+W48 +W52 +W68 +W71 -W10 -W11 -W16 -W40 -W72 = 0
+W48 +W52 +W68 +W71 -W10 -W11 -W20 -W37 -W39 -W72 = 0
+W42 +W53 +W68 +W71 -W35 -W38 -W39 -W72 = 0
+W1 +W4 +W62 +W69 +W71 -W1 -W4 -W17 -W40 -W72 = 0
+W48 +W52 +W68 +W71 -W10 -W11 -W20 -W37 -W39 -W72 = 0
+W42 +W53 +W68 +W71 -W35 -W38 -W39 -W72 = 0
+W42 +W53 +W68 +W71 -W35 -W38 -W39 -W72 = 0
+W1 +W4 +W62 +W69 +W71 -W1 -W4 -W17 -W40 -W72 = 0
+W42 +W53 +W68 +W71 -W35 -W38 -W39 -W72 = 0
+W1 +W4 +W62 +W69 +W71 -W1 -W4 -W17 -W40 -W72 = 0
+W48 +W52 +W68 +W71 -W10 -W11 -W16 -W40 -W72 = 0
+W1 +W4 +W62 +W69 +W71 -W1 -W4 -W17 -W40 -W72 = 0
+W48 +W52 +W68 +W71 -W10 -W11 -W16 -W40 -W72 = 0
+W10 +W11 +W20 +W37 +W39 +W72 -1 d0_1 -2 d0_2 -3 d0_3 -4 d0_4 -5 d0_5 -6 d0_6 -7 d0_7 -8 d0_8 -9 d0_9 = 0
+d0_0 +d0_1 +d0_2 +d0_3 +d0_4 +d0_5 +d0_6 +d0_7 +d0_8 +d0_9 = 1
+W35 +W38 +W39 +W72 -1 d1_1 -2 d1_2 -3 d1_3 -4 d1_4 -5 d1_5 -6 d1_6 -7 d1_7 -8 d1_8 -9 d1_9 = 0
+d1_0 +d1_1 +d1_2 +d1_3 +d1_4 +d1_5 +d1_6 +d1_7 +d1_8 +d1_9 = 1
+W8 +W9 +W11 +W20 +W37 +W39 +W72 -1 d2_1 -2 d2_2 -3 d2_3 -4 d2_4 -5 d2_5 -6 d2_6 -7 d2_7 -8 d2_8 -9 d2_9 = 0
+d2_0 +d2_1 +d2_2 +d2_3 +d2_4 +d2_5 +d2_6 +d2_7 +d2_8 +d2_9 = 1
+W1 +W4 +W17 +W40 +W72 -1 d3_1 -2 d3_2 -3 d3_3 -4 d3_4 -5 d3_5 -6 d3_6 -7 d3_7 -8 d3_8 -9 d3_9 = 0
+d3_0 +d3_1 +d3_2 +d3_3 +d3_4 +d3_5 +d3_6 +d3_7 +d3_8 +d3_9 = 1
+W3 +W17 +W40 +W72 -1 d4_1 -2 d4_2 -3 d4_3 -4 d4_4 -5 d4_5 -6 d4_6 -7 d4_7 -8 d4_8 -9 d4_9 = 0
+d4_0 +d4_1 +d4_2 +d4_3 +d4_4 +d4_5 +d4_6 +d4_7 +d4_8 +d4_9 = 1
+W10 +W11 +W16 +W40 +W72 -1 d5_1 -2 d5_2 -3 d5_3 -4 d5_4 -5 d5_5 -6 d5_6 -7 d5_7 -8 d5_8 -9 d5_9 = 0
+d5_0 +d5_1 +d5_2 +d5_3 +d5_4 +d5_5 +d5_6 +d5_7 +d5_8 +d5_9 = 1
+W8 +W9 +W11 +W16 +W40 +W72 -1 d6_1 -2 d6_2 -3 d6_3 -4 d6_4 -5 d6_5 -6 d6_6 -7 d6_7 -8 d6_8 -9 d6_9 = 0
+d6_0 +d6_1 +d6_2 +d6_3 +d6_4 +d6_5 +d6_6 +d6_7 +d6_8 +d6_9 = 1
+W48 +W52 +W68 +W71 -1 d7_1 -2 d7_2 -3 d7_3 -4 d7_4 -5 d7_5 -6 d7_6 -7 d7_7 -8 d7_8 -9 d7_9 = 0
+d7_0 +d7_1 +d7_2 +d7_3 +d7_4 +d7_5 +d7_6 +d7_7 +d7_8 +d7_9 = 1
+W42 +W53 +W68 +W71 -1 d8_1 -2 d8_2 -3 d8_3 -4 d8_4 -5 d8_5 -6 d8_6 -7 d8_7 -8 d8_8 -9 d8_9 = 0
+d8_0 +d8_1 +d8_2 +d8_3 +d8_4 +d8_5 +d8_6 +d8_7 +d8_8 +d8_9 = 1
+W1 +W4 +W62 +W69 +W71 -1 d9_1 -2 d9_2 -3 d9_3 -4 d9_4 -5 d9_5 -6 d9_6 -7 d9_7 -8 d9_8 -9 d9_9 = 0
+d9_0 +d9_1 +d9_2 +d9_3 +d9_4 +d9_5 +d9_6 +d9_7 +d9_8 +d9_9 = 1
+d0_0 +d1_0 <= 1
+d0_1 +d1_1 <= 1
+d0_2 +d1_2 <= 1
+d0_3 +d1_3 <= 1
+d0_4 +d1_4 <= 1
+d0_5 +d1_5 <= 1
+d0_6 +d1_6 <= 1
+d0_7 +d1_7 <= 1
+d0_8 +d1_8 <= 1
+d0_9 +d1_9 <= 1
+d0_0 +d2_0 <= 1
+d0_1 +d2_1 <= 1
+d0_2 +d2_2 <= 1
+d0_3 +d2_3 <= 1
+d0_4 +d2_4 <= 1
+d0_5 +d2_5 <= 1
+d0_6 +d2_6 <= 1
+d0_7 +d2_7 <= 1
+d0_8 +d2_8 <= 1
+d0_9 +d2_9 <= 1
+d1_0 +d2_0 <= 1
+d1_1 +d2_1 <= 1
+d1_2 +d2_2 <= 1
+d1_3 +d2_3 <= 1
+d1_4 +d2_4 <= 1
+d1_5 +d2_5 <= 1
+d1_6 +d2_6 <= 1
+d1_7 +d2_7 <= 1
+d1_8 +d2_8 <= 1
+d1_9 +d2_9 <= 1
+d3_0 +d0_0 <= 1
+d3_1 +d0_1 <= 1
+d3_2 +d0_2 <= 1
+d3_3 +d0_3 <= 1
+d3_4 +d0_4 <= 1
+d3_5 +d0_5 <= 1
+d3_6 +d0_6 <= 1
+d3_7 +d0_7 <= 1
+d3_8 +d0_8 <= 1
+d3_9 +d0_9 <= 1
+d3_0 +d1_0 <= 1
+d3_1 +d1_1 <= 1
+d3_2 +d1_2 <= 1
+d3_3 +d1_3 <= 1
+d3_4 +d1_4 <= 1
+d3_5 +d1_5 <= 1
+d3_6 +d1_6 <= 1
+d3_7 +d1_7 <= 1
+d3_8 +d1_8 <= 1
+d3_9 +d1_9 <= 1
+d3_0 +d2_0 <= 1
+d3_1 +d2_1 <= 1
+d3_2 +d2_2 <= 1
+d3_3 +d2_3 <= 1
+d3_4 +d2_4 <= 1
+d3_5 +d2_5 <= 1
+d3_6 +d2_6 <= 1
+d3_7 +d2_7 <= 1
+d3_8 +d2_8 <= 1
+d3_9 +d2_9 <= 1
+d3_0 +d4_0 <= 1
+d3_1 +d4_1 <= 1
+d3_2 +d4_2 <= 1
+d3_3 +d4_3 <= 1
+d3_4 +d4_4 <= 1
+d3_5 +d4_5 <= 1
+d3_6 +d4_6 <= 1
+d3_7 +d4_7 <= 1
+d3_8 +d4_8 <= 1
+d3_9 +d4_9 <= 1
+d5_0 +d6_0 <= 1
+d5_1 +d6_1 <= 1
+d5_2 +d6_2 <= 1
+d5_3 +d6_3 <= 1
+d5_4 +d6_4 <= 1
+d5_5 +d6_5 <= 1
+d5_6 +d6_6 <= 1
+d5_7 +d6_7 <= 1
+d5_8 +d6_8 <= 1
+d5_9 +d6_9 <= 1
+d3_0 +d5_0 <= 1
+d3_1 +d5_1 <= 1
+d3_2 +d5_2 <= 1
+d3_3 +d5_3 <= 1
+d3_4 +d5_4 <= 1
+d3_5 +d5_5 <= 1
+d3_6 +d5_6 <= 1
+d3_7 +d5_7 <= 1
+d3_8 +d5_8 <= 1
+d3_9 +d5_9 <= 1
+d3_0 +d6_0 <= 1
+d3_1 +d6_1 <= 1
+d3_2 +d6_2 <= 1
+d3_3 +d6_3 <= 1
+d3_4 +d6_4 <= 1
+d3_5 +d6_5 <= 1
+d3_6 +d6_6 <= 1
+d3_7 +d6_7 <= 1
+d3_8 +d6_8 <= 1
+d3_9 +d6_9 <= 1
+d7_0 +d8_0 <= 1
+d7_1 +d8_1 <= 1
+d7_2 +d8_2 <= 1
+d7_3 +d8_3 <= 1
+d7_4 +d8_4 <= 1
+d7_5 +d8_5 <= 1
+d7_6 +d8_6 <= 1
+d7_7 +d8_7 <= 1
+d7_8 +d8_8 <= 1
+d7_9 +d8_9 <= 1
+d9_0 +d7_0 <= 1
+d9_1 +d7_1 <= 1
+d9_2 +d7_2 <= 1
+d9_3 +d7_3 <= 1
+d9_4 +d7_4 <= 1
+d9_5 +d7_5 <= 1
+d9_6 +d7_6 <= 1
+d9_7 +d7_7 <= 1
+d9_8 +d7_8 <= 1
+d9_9 +d7_9 <= 1
+d9_0 +d8_0 <= 1
+d9_1 +d8_1 <= 1
+d9_2 +d8_2 <= 1
+d9_3 +d8_3 <= 1
+d9_4 +d8_4 <= 1
+d9_5 +d8_5 <= 1
+d9_6 +d8_6 <= 1
+d9_7 +d8_7 <= 1
+d9_8 +d8_8 <= 1
+d9_9 +d8_9 <= 1
